(set-logic HORN)
(declare-fun k_28 (Int Int Int Int (Array Int Int)) Bool)
(declare-fun k_26 (Int Int Int Int (Array Int Int)) Bool)
(declare-fun k_24 (Int Int Int Int (Array Int Int)) Bool)
(assert (forall ((GT_6W Int)
         (LT_6S Int)
         (lq_tmp_x4 Int)
         (VV_F1 Int)
         (EQ_6U Int)
         (cmp (Array Int Int)))
  (=> (and (k_28 EQ_6U GT_6W LT_6S lq_tmp_x4 cmp)
           (= (select cmp EQ_6U) EQ_6U)
           (= (select cmp GT_6W) GT_6W)
           (= (select cmp LT_6S) LT_6S)
           (> VV_F1 lq_tmp_x4)
           true)
      (k_24 EQ_6U GT_6W LT_6S VV_F1 cmp))))
(assert (forall ((GT_6W Int)
         (LT_6S Int)
         (lq_tmp_x2 Int)
         (VV_F2 Int)
         (EQ_6U Int)
         (cmp (Array Int Int)))
  (=> (and (k_24 EQ_6U GT_6W LT_6S lq_tmp_x2 cmp)
           (= (select cmp EQ_6U) EQ_6U)
           (= (select cmp GT_6W) GT_6W)
           (= (select cmp LT_6S) LT_6S)
           (> VV_F2 lq_tmp_x2)
           true)
      (k_26 EQ_6U GT_6W LT_6S VV_F2 cmp))))

(check-sat)
